unsat
(forall ((A (_ BitVec 1))
         (B (_ BitVec 1))
         (C (_ BitVec 1))
         (D (_ BitVec 1))
         (E (_ BitVec 1))
         (F (_ BitVec 1))
         (G (_ BitVec 1))
         (H (_ BitVec 32))
         (I (_ BitVec 32))
         (J (_ BitVec 1))
         (K (_ BitVec 22))
         (L (_ BitVec 1))
         (M (_ BitVec 22))
         (N (_ BitVec 1))
         (O (_ BitVec 1))
         (P (_ BitVec 36))
         (Q (_ BitVec 4))
         (R (_ BitVec 1))
         (S (_ BitVec 1))
         (T (_ BitVec 1))
         (U (_ BitVec 1))
         (V (_ BitVec 1))
         (W (_ BitVec 1))
         (X (_ BitVec 32))
         (Y (_ BitVec 2))
         (Z (_ BitVec 1))
         (A1 (_ BitVec 1))
         (B1 (_ BitVec 2))
         (C1 (_ BitVec 1))
         (D1 (_ BitVec 1))
         (E1 (_ BitVec 2))
         (F1 (_ BitVec 1))
         (G1 (_ BitVec 1))
         (H1 (_ BitVec 5))
         (I1 (_ BitVec 4))
         (J1 (_ BitVec 1))
         (K1 (_ BitVec 3))
         (L1 (_ BitVec 1))
         (M1 (_ BitVec 1))
         (N1 (_ BitVec 1))
         (O1 (_ BitVec 1))
         (P1 (_ BitVec 1))
         (Q1 (_ BitVec 1))
         (R1 (_ BitVec 1))
         (S1 (_ BitVec 1))
         (T1 (_ BitVec 1))
         (U1 (_ BitVec 1))
         (V1 (_ BitVec 1))
         (W1 (_ BitVec 32))
         (X1 (_ BitVec 1))
         (Y1 (_ BitVec 4))
         (Z1 (_ BitVec 1))
         (A2 (_ BitVec 22))
         (B2 (_ BitVec 1)))
  (! (let ((a!1 (and (or (= ((_ extract 8 8) X) #b1)
                         (= ((_ extract 12 12) X) #b0))
                     (or (not (= R #b1)) (= ((_ extract 4 1) H1) #x0))))
           (a!2 (not (or (= ((_ extract 8 8) X) #b1)
                         (= ((_ extract 12 12) X) #b0))))
           (a!4 (or (not (= T1 #b1))
                    (not (= E1 B1))
                    (not (= ((_ extract 0 0) H1) #b1)))))
     (let ((a!3 (ite (or (= R #b0) (not (= H1 #b00001))) a!2 (= U #b0))))
     (let ((a!5 (and (or (not (= T1 #b1))
                         (not (= E1 B1))
                         (not ((_ bit2bool 0) N1)))
                     (not (= P1 #b0))
                     (not ((_ bit2bool 1) P))
                     (or (not (= T1 #b1))
                         ((_ bit2bool 0) N)
                         (= ((_ extract 0 0) Y) #b1)
                         (not (= L1 #b0)))
                     (or (not (= T1 #b1)) (not (= J #b1)))
                     (or (not (= T1 #b1))
                         ((_ bit2bool 0) N)
                         (not ((_ bit2bool 0) N1)))
                     (or a!1 a!3 (not (= C1 #b1)))
                     (or (= ((_ extract 4 1) H1) #x0)
                         (not (= T1 #b1))
                         (not (= E1 B1)))
                     a!4)))
       (= (INV!slice!1 A
                       B
                       C
                       D
                       E
                       F
                       G
                       H
                       I
                       J
                       K
                       L
                       M
                       N
                       O
                       P
                       Q
                       R
                       S
                       T
                       U
                       V
                       W
                       X
                       Y
                       Z
                       A1
                       B1
                       C1
                       D1
                       E1
                       F1
                       G1
                       H1
                       I1
                       J1
                       K1
                       L1
                       M1
                       N1
                       O1
                       P1
                       Q1
                       R1
                       S1
                       T1
                       U1
                       V1
                       W1
                       X1
                       Y1
                       Z1
                       A2
                       B2)
          a!5))))
     :weight 0))
